%chk=test_tsrot_a_s_freq_r1.chk
#p nosymm scf=(maxconventionalcycles=200,xqc) wB97XD def2SVP freq(hpmodes)

Title Card

0 1
C  -0.299686  -0.776072  -0.127936
C  -0.222383  0.612492  -0.281798
Cl  0.238463  1.593652  1.079081
C  -0.454600  1.199215  -1.521546
C  -0.784523  0.400851  -2.614800
C  -0.893188  -0.981184  -2.460610
C  -0.668757  -1.566867  -1.219582
N  -0.243193  -1.356242  1.159222
N  0.707407  -1.829505  1.778498
C  2.113897  -1.962876  1.474995
C  2.983426  -1.610768  0.411805
Cl  2.533904  -0.802846  -1.056968
C  4.346343  -1.916251  0.495024
C  4.884222  -2.564273  1.599749
C  4.053278  -2.921252  2.657089
C  2.703879  -2.617001  2.577236
H  -0.365692  2.281972  -1.621210
H  -0.964416  0.863799  -3.586672
H  -1.159088  -1.609286  -3.312953
H  -0.762318  -2.645334  -1.079989
H  4.986394  -1.629592  -0.340235
H  5.953094  -2.785174  1.626973
H  4.450494  -3.429192  3.537187
H  2.019157  -2.874564  3.386016

