%chk=test_tsinv_l_b_ts_r1.chk
#p nosymm scf=(maxconventionalcycles=200,xqc) wB97XD def2SVP opt=(TS,NoEigenTest,RecalcFC=30,Cartesian,SkipDihedral,MaxCycles=300)

Title Card

0 1
C  1.427693  0.000000  0.000000
C  2.294907  -1.117494  0.000000
Cl  1.775001  -2.773933  -0.022616
C  3.690491  -0.949409  0.030387
C  4.257584  0.320149  0.067602
C  3.431361  1.435280  0.058902
C  2.037804  1.274257  0.018271
N  0.000000  0.000000  0.000000
N  -1.244593  0.002172  0.000000
C  -1.842987  -1.273388  0.086337
C  -1.575751  -2.216679  1.092331
Cl  -0.393772  -1.948894  2.328353
C  -2.305279  -3.413742  1.163644
C  -3.317574  -3.681515  0.242838
C  -3.613851  -2.750569  -0.745167
C  -2.886939  -1.554682  -0.816203
H  4.341141  -1.820877  0.031026
H  5.339076  0.430890  0.102927
H  3.869124  2.431285  0.086472
H  1.414669  2.167503  0.003786
H  -2.096834  -4.132550  1.951089
H  -3.881757  -4.609997  0.309016
H  -4.417538  -2.944601  -1.452751
H  -3.154090  -0.820697  -1.573755

