%chk=test_tsinv_l_a_freq_r1.chk
#p nosymm scf=(maxconventionalcycles=200,xqc) wB97XD def2SVP freq(hpmodes)

Title Card

0 1
C  1.649160  -0.627068  -0.574104
C  1.809643  0.565189  0.178184
Cl  0.392439  1.525971  0.509110
C  3.059536  0.951926  0.638964
C  4.182115  0.160596  0.398433
C  4.031001  -1.026538  -0.319318
C  2.795436  -1.423952  -0.810843
N  0.451485  -0.978557  -1.019740
N  -0.665979  -1.235708  -1.414891
C  -1.607648  -1.832838  -0.502864
C  -1.329240  -2.621226  0.625410
Cl  0.290636  -3.054703  1.079336
C  -2.378305  -3.126065  1.393222
C  -3.698319  -2.843703  1.051131
C  -3.984875  -2.075001  -0.076609
C  -2.939754  -1.592698  -0.853565
H  3.138421  1.882247  1.204191
H  5.159504  0.468805  0.771049
H  4.898317  -1.661868  -0.512134
H  2.682843  -2.348705  -1.376835
H  -2.145538  -3.744803  2.261023
H  -4.507309  -3.240655  1.667490
H  -5.018549  -1.861896  -0.353523
H  -3.117133  -1.001544  -1.754144

