%chk=test_trans_opt_r1.chk
#p nosymm scf=(maxconventionalcycles=200,xqc) wB97XD def2SVP opt=(RecalcFC=30,cartesian,skipdihedral)

Title Card

0 1
C  0.000000  0.000000  0.000000
C  -0.624566  -1.268954  -0.022909
Cl  -2.341482  -1.527393  -0.019219
C  0.138319  -2.449861  -0.040023
C  1.528466  -2.403814  -0.028608
C  2.168692  -1.172481  -0.015749
C  1.412841  0.009984  -0.008980
N  -0.625286  1.282597  0.047647
N  -1.864287  1.243048  -0.063390
C  -2.499598  2.502889  -0.105363
C  -2.181332  3.530354  -1.008834
Cl  -0.887826  3.396742  -2.151429
C  -2.945601  4.706854  -1.053542
C  -4.042916  4.870468  -0.208877
C  -4.388993  3.855854  0.675081
C  -3.627348  2.680471  0.719371
H  -0.359960  -3.416429  -0.056393
H  2.102346  -3.327824  -0.029994
H  3.256144  -1.129897  -0.008181
H  1.942475  0.961763  -0.007483
H  -2.696488  5.491597  -1.762291
H  -4.633113  5.783910  -0.254197
H  -5.257465  3.969114  1.320964
H  -3.931762  1.881204  1.392047

