%chk=test_cis_td_r1.chk
#p nosymm scf=(maxconventionalcycles=200,xqc) wB97XD def2SVP td=(singlets,nstates=10) pop=full iop(9/40=3) GFINPUT Integral=NoXCTest

Title Card

0 1
C  -0.018265  -0.076286  0.554644
C  -0.053084  0.069688  1.943717
Cl  -0.670690  -1.233069  2.917769
C  0.447016  1.219884  2.547909
C  0.970545  2.240828  1.757560
C  1.002915  2.105650  0.370007
C  0.513099  0.950442  -0.230821
N  -0.645815  -1.200923  -0.065258
N  0.008986  -2.013691  -0.722576
C  1.437487  -1.969067  -0.739905
C  2.118625  -1.744501  -1.938918
Cl  1.213175  -1.304060  -3.358134
C  3.507795  -1.820002  -1.989481
C  4.222269  -2.139548  -0.836832
C  3.549410  -2.371657  0.362361
C  2.161897  -2.284412  0.413015
H  0.423850  1.303924  3.635274
H  1.355424  3.145336  2.231960
H  1.413501  2.903822  -0.250978
H  0.528126  0.830014  -1.316327
H  4.018336  -1.624566  -2.933484
H  5.310891  -2.205864  -0.879326
H  4.107302  -2.621312  1.266646
H  1.619392  -2.466578  1.343382

