%chk=test_tsrot_b_t_freq_r1.chk
#p nosymm scf=(maxconventionalcycles=200,xqc) UwB97XD def2SVP freq(hpmodes)

Title Card

0 3
C  -0.676896  -0.915305  -0.084348
C  -0.472169  0.457674  0.218187
Cl  1.021599  1.021611  0.902171
C  -1.478752  1.389691  -0.020532
C  -2.705575  0.990404  -0.545569
C  -2.932609  -0.358936  -0.836978
C  -1.935806  -1.290864  -0.611256
N  0.218666  -1.925648  0.105730
N  1.449813  -1.833193  0.386378
C  2.071898  -2.167968  1.552581
C  1.437077  -2.477211  2.785460
Cl  -0.292511  -2.455515  2.944399
C  2.195917  -2.798335  3.907912
C  3.587367  -2.807732  3.844810
C  4.232385  -2.491831  2.644234
C  3.486982  -2.179986  1.521637
H  -1.289394  2.437016  0.219132
H  -3.484061  1.734484  -0.722974
H  -3.893069  -0.679477  -1.244597
H  -2.084757  -2.348978  -0.831504
H  1.678607  -3.034784  4.838890
H  4.165916  -3.058726  4.735572
H  5.322485  -2.493093  2.588764
H  3.963697  -1.932379  0.572028

