%chk=test_tsrot_a_s_ts_r1.chk
#p nosymm scf=(maxconventionalcycles=200,xqc) wB97XD def2SVP opt=(TS,NoEigenTest,RecalcFC=30,Cartesian,SkipDihedral,MaxCycles=300)

Title Card

0 1
C  -0.161223  -1.339254  -0.425744
C  0.000000  0.000000  0.000000
Cl  0.568765  0.478181  1.569221
C  -0.313667  1.072479  -0.853365
C  -0.797195  0.846916  -2.137920
C  -0.956539  -0.456916  -2.586099
C  -0.635486  -1.531700  -1.742687
N  0.082663  -2.530789  0.321967
N  0.608303  -2.329777  1.432063
C  2.019891  -2.329777  1.432063
C  2.820525  -2.535435  0.296313
Cl  2.153085  -2.900613  -1.258583
C  4.215853  -2.401676  0.369987
C  4.830629  -2.049756  1.571041
C  4.054561  -1.818203  2.700065
C  2.661424  -1.950191  2.627007
H  -0.184164  2.095494  -0.507717
H  -1.046003  1.688893  -2.780031
H  -1.333123  -0.639852  -3.590660
H  -0.762626  -2.543892  -2.124395
H  4.825191  -2.554007  -0.516414
H  5.912852  -1.943036  1.617602
H  4.527313  -1.521805  3.634351
H  2.065084  -1.731581  3.510510

