%chk=test_tsinv_r_b_freq_r1.chk
#p nosymm scf=(maxconventionalcycles=200,xqc) wB97XD def2SVP freq(hpmodes)

Title Card

0 1
C  -1.772031  1.447983  0.010607
C  -1.300931  2.674267  0.507154
Cl  0.216560  2.818843  1.340432
C  -2.086528  3.819738  0.381647
C  -3.330279  3.753851  -0.241200
C  -3.813316  2.537653  -0.723157
C  -3.039760  1.393633  -0.576953
N  -1.114424  0.167049  0.053967
N  0.096184  0.129684  0.117606
C  1.420635  0.081627  0.113912
C  2.139290  0.271791  -1.094590
Cl  1.232383  0.586398  -2.550378
C  3.524957  0.211157  -1.114394
C  4.243978  -0.007984  0.060014
C  3.547668  -0.171879  1.258192
C  2.160878  -0.138682  1.300724
H  -1.710210  4.762674  0.780825
H  -3.929145  4.661653  -0.337332
H  -4.792497  2.480925  -1.201277
H  -3.384390  0.417431  -0.923677
H  4.036216  0.352363  -2.068271
H  5.333505  -0.046399  0.036046
H  4.094590  -0.338751  2.188827
H  1.620599  -0.274086  2.237728

