%chk=test_tsrot_b_t_opt_r1.chk
#p nosymm scf=(maxconventionalcycles=200,xqc) UwB97XD def2SVP opt=(RecalcFC=30,cartesian,skipdihedral)

Title Card

0 3
C  -0.664126  -1.248382  -0.036486
C  0.000000  0.000000  0.000000
Cl  1.717082  0.203531  0.157508
C  -0.720405  1.204645  -0.081710
C  -2.106785  1.202972  -0.194431
C  -2.784408  -0.007308  -0.242217
C  -2.070133  -1.213286  -0.171441
N  -0.086658  -2.550275  0.063076
N  1.157937  -2.550275  0.063076
C  1.754103  -2.452708  1.338870
C  1.485221  -3.313150  2.416172
Cl  0.303712  -4.575090  2.326306
C  2.212659  -3.211934  3.612352
C  3.224485  -2.261999  3.747102
C  3.522386  -1.417584  2.684646
C  2.797563  -1.518903  1.489675
H  -0.192190  2.154824  -0.050833
H  -2.648600  2.144822  -0.244354
H  -3.869001  -0.015176  -0.331768
H  -2.627765  -2.147682  -0.219887
H  2.002959  -3.888252  4.436261
H  3.787047  -2.194247  4.676454
H  4.325733  -0.689292  2.776624
H  3.065994  -0.874333  0.655132

