%chk=test_tsinv_r_a_freq_r1.chk
#p nosymm scf=(maxconventionalcycles=200,xqc) wB97XD def2SVP freq(hpmodes)

Title Card

0 1
C  -1.706243  1.568899  -0.557190
C  -1.193299  2.803107  -0.126276
Cl  0.473466  3.243162  -0.341640
C  -2.045866  3.743289  0.451793
C  -3.399760  3.459313  0.611636
C  -3.921092  2.242764  0.172371
C  -3.075232  1.317054  -0.424383
N  -0.989637  0.485224  -1.179520
N  0.197593  0.365485  -0.962458
C  1.477961  0.185186  -0.671452
C  1.852884  -0.431993  0.549903
Cl  0.588371  -0.919350  1.647409
C  3.188786  -0.638261  0.861218
C  4.194633  -0.215554  -0.007016
C  3.837224  0.414579  -1.199678
C  2.507537  0.611999  -1.544830
H  -1.633735  4.701101  0.772500
H  -4.051687  4.203772  1.072885
H  -4.983698  2.022312  0.285832
H  -3.442226  0.359323  -0.798570
H  3.431116  -1.126657  1.806714
H  5.242413  -0.375099  0.249554
H  4.611867  0.757590  -1.889122
H  2.232555  1.098745  -2.480601

