%chk=test_tsrot_b_s_freq_r1.chk
#p nosymm scf=(maxconventionalcycles=200,xqc) wB97XD def2SVP freq(hpmodes)

Title Card

0 1
C  -0.693632  -1.210176  0.071133
C  -0.463101  -0.044163  0.844255
Cl  0.743819  0.148345  2.076487
C  -1.251727  1.093846  0.642381
C  -2.266803  1.121195  -0.305552
C  -2.514049  -0.009232  -1.078151
C  -1.735798  -1.137887  -0.877329
N  -0.138534  -2.540815  -0.025990
N  0.784424  -3.109122  0.553917
C  1.677289  -2.632996  1.540165
C  1.420763  -2.863318  2.896228
Cl  -0.137448  -3.472215  3.374085
C  2.377986  -2.556298  3.857761
C  3.608585  -2.032204  3.467329
C  3.881516  -1.828735  2.114698
C  2.927584  -2.143036  1.152996
H  -1.048047  1.972343  1.255798
H  -2.860396  2.028621  -0.433033
H  -3.306395  -0.014957  -1.828170
H  -1.900190  -2.046500  -1.457585
H  2.145594  -2.723894  4.910415
H  4.357150  -1.790779  4.224024
H  4.847346  -1.425581  1.804271
H  3.130875  -2.001523  0.089995

