%chk=test_cis_opt_r1.chk
#p nosymm scf=(maxconventionalcycles=200,xqc) wB97XD def2SVP opt=(RecalcFC=30,cartesian,skipdihedral)

Title Card

0 1
C  0.000000  0.000000  0.000000
C  0.968396  -0.033459  1.030506
Cl  1.582196  -1.481824  1.765415
C  1.509053  1.154537  1.553177
C  1.102437  2.396241  1.076107
C  0.160590  2.459462  0.058679
C  -0.375257  1.276924  -0.474287
N  -0.662752  -1.105174  -0.614540
N  -0.137113  -2.206553  -0.370238
C  1.274476  -2.206553  -0.370238
C  2.075110  -1.173661  -0.885366
Cl  1.407670  0.217027  -1.670887
C  3.470437  -1.206981  -0.736340
C  4.085214  -2.261659  -0.062521
C  3.309146  -3.280850  0.475589
C  1.916009  -3.247627  0.328434
H  2.251882  1.108633  2.346210
H  1.522735  3.305207  1.500686
H  -0.160544  3.427998  -0.319782
H  -1.106278  1.357099  -1.277765
H  4.079776  -0.398569  -1.130525
H  5.167436  -2.276511  0.052963
H  3.781898  -4.094938  1.021485
H  1.319669  -4.034717  0.785442

