%chk=test_trans_td_r1.chk
#p nosymm scf=(maxconventionalcycles=200,xqc) wB97XD def2SVP td=(singlets,nstates=10) pop=full iop(9/40=3) GFINPUT Integral=NoXCTest

Title Card

0 1
C  -0.031101  -0.036525  0.031850
C  -0.577926  -1.250982  0.483530
Cl  -2.162683  -1.357237  1.192851
C  0.186399  -2.417369  0.432536
C  1.481719  -2.391000  -0.076293
C  2.037764  -1.188863  -0.511987
C  1.288881  -0.021682  -0.434370
N  -0.669007  1.228632  0.055147
N  -1.860367  1.227568  -0.278621
C  -2.498470  2.492601  -0.255467
C  -1.952277  3.706806  -0.708562
Cl  -0.367930  3.812741  -1.418789
C  -2.716934  4.873003  -0.658228
C  -4.011902  4.846703  -0.148488
C  -4.567258  3.644816  0.288859
C  -3.818100  2.477788  0.211776
H  -0.250194  -3.347280  0.799465
H  2.061558  -3.315113  -0.116908
H  3.057876  -1.158883  -0.898642
H  1.697375  0.941305  -0.745862
H  -2.280891  5.802699  -1.026393
H  -4.592048  5.770638  -0.108442
H  -5.587094  3.614874  0.676287
H  -4.226131  1.514958  0.524398

