%chk=test_tsinv_l_b_freq_r1.chk
#p nosymm scf=(maxconventionalcycles=200,xqc) wB97XD def2SVP freq(hpmodes)

Title Card

0 1
C  1.467531  -0.067694  -0.309345
C  2.448072  -0.972698  -0.791597
Cl  1.920291  -2.304480  -1.785872
C  3.788301  -0.802183  -0.477222
C  4.197905  0.246710  0.345114
C  3.238435  1.128530  0.844199
C  1.894364  0.992896  0.526108
N  0.191636  -0.234811  -0.626688
N  -0.955937  -0.430642  -0.966842
C  -1.726159  -1.433353  -0.276478
C  -1.553944  -1.894328  1.038804
Cl  -0.342608  -1.243295  2.100408
C  -2.407709  -2.873072  1.546864
C  -3.422777  -3.400571  0.752743
C  -3.611539  -2.937507  -0.549095
C  -2.775215  -1.946223  -1.045640
H  4.509616  -1.516146  -0.878682
H  5.252813  0.368498  0.593016
H  3.540325  1.952647  1.494386
H  1.148874  1.687763  0.912900
H  -2.266736  -3.213692  2.573608
H  -4.077648  -4.171451  1.163702
H  -4.413458  -3.340814  -1.169519
H  -2.896547  -1.541574  -2.052382

