%chk=test_tsinv_r_a_ts_r1.chk
#p nosymm scf=(maxconventionalcycles=200,xqc) wB97XD def2SVP opt=(TS,NoEigenTest,RecalcFC=30,Cartesian,SkipDihedral,MaxCycles=300)

Title Card

0 1
C  -1.824334  1.299537  -0.088103
C  -1.162387  2.548706  -0.040633
Cl  0.554340  2.753840  0.118660
C  -1.884894  3.752765  -0.111740
C  -3.271270  3.749664  -0.224471
C  -3.946781  2.538671  -0.282905
C  -3.230402  1.333365  -0.222744
N  -1.244593  -0.002172  0.000000
N  0.000000  0.000000  0.000000
C  1.411589  0.000000  0.000000
C  2.212223  -0.999584  0.577110
Cl  1.544783  -2.339822  1.445912
C  3.607550  -0.975406  0.426330
C  4.222327  0.036253  -0.310503
C  3.446259  1.020761  -0.909716
C  2.053121  0.996566  -0.760810
H  -1.358338  4.703555  -0.072503
H  -3.814729  4.690969  -0.266104
H  -5.031360  2.529698  -0.372521
H  -3.786403  0.398459  -0.279410
H  4.216889  -1.758296  0.869042
H  5.304549  0.044041  -0.426677
H  3.919010  1.800073  -1.504204
H  1.456782  1.754347  -1.264931

