%chk=test_tsinv_r_b_ts_r1.chk
#p nosymm scf=(maxconventionalcycles=200,xqc) wB97XD def2SVP opt=(TS,NoEigenTest,RecalcFC=30,Cartesian,SkipDihedral,MaxCycles=300)

Title Card

0 1
C  -1.824334  1.299537  -0.088103
C  -1.162387  2.548706  -0.040633
Cl  0.554340  2.753840  0.118660
C  -1.884894  3.752765  -0.111740
C  -3.271270  3.749664  -0.224471
C  -3.946781  2.538671  -0.282905
C  -3.230402  1.333365  -0.222744
N  -1.244593  -0.002172  0.000000
N  0.000000  0.000000  0.000000
C  1.411589  0.000000  0.000000
C  2.212223  0.577110  -0.999584
Cl  1.544783  1.303389  -2.422108
C  3.607550  0.631562  -0.856916
C  4.222327  0.123855  0.287030
C  3.446259  -0.429147  1.298218
C  2.053121  -0.482646  1.157164
H  -1.358338  4.703555  -0.072503
H  -3.814729  4.690969  -0.266104
H  -5.031360  2.529698  -0.372521
H  -3.786403  0.398459  -0.279410
H  4.216889  1.088208  -1.631761
H  5.304549  0.175198  0.391534
H  3.919010  -0.806807  2.202715
H  1.456782  -0.886843  1.972635

