%chk=test_tsrot_a_t_freq_r1.chk
#p nosymm scf=(maxconventionalcycles=200,xqc) UwB97XD def2SVP freq(hpmodes)

Title Card

0 3
C  -0.173125  -1.044504  -0.658308
C  0.013923  0.349413  -0.457092
Cl  1.065029  0.952054  0.787615
C  -0.640029  1.272760  -1.268630
C  -1.475615  0.846111  -2.298175
C  -1.661771  -0.522165  -2.522530
C  -1.023030  -1.446859  -1.716243
N  0.408887  -2.048276  0.057890
N  1.047350  -1.958780  1.147568
C  2.381159  -2.148460  1.357329
C  3.382317  -2.259911  0.355508
Cl  2.989145  -2.157513  -1.333279
C  4.716098  -2.445765  0.709504
C  5.092197  -2.511355  2.049084
C  4.123760  -2.389334  3.051290
C  2.795215  -2.212859  2.709307
H  -0.478473  2.336190  -1.086390
H  -1.977525  1.584192  -2.926274
H  -2.311757  -0.863546  -3.330217
H  -1.152215  -2.519643  -1.867054
H  5.460689  -2.531237  -0.083265
H  6.142812  -2.654295  2.307847
H  4.411991  -2.435471  4.103040
H  2.019081  -2.117044  3.470048

